NPROCS=0
This instance is clustered!
Gurobi Optimizer version 9.0.0 build v9.0.0rc2 (linux64)
Optimize a model with 18 rows, 82 columns and 162 nonzeros
Model fingerprint: 0x2ab68526
Variable types: 1 continuous, 81 integer (81 binary)
Coefficient statistics:
  Matrix range     [1e+00, 1e+00]
  Objective range  [1e+00, 4e+01]
  Bounds range     [1e+00, 1e+00]
  RHS range        [1e+00, 1e+00]
 done with super cut 0
Presolve removed 2 rows and 24 columns
Presolve time: 0.00s
Presolved: 16 rows, 58 columns, 114 nonzeros
Variable types: 1 continuous, 57 integer (57 binary)

Root relaxation: objective 7.694498e+01, 12 iterations, 0.00 seconds
 done with super cut 1

    Nodes    |    Current Node    |     Objective Bounds      |     Work
 Expl Unexpl |  Obj  Depth IntInf | Incumbent    BestBd   Gap | It/Node Time

     0     0   92.16094    0   14          -   92.16094      -     -    0s
 done with super cut 2
H    0     0                     102.6382111   92.16094  10.2%     -    0s
     0     0   93.99559    0   16  102.63821   93.99559  8.42%     -    0s
     0     0   93.99559    0   10  102.63821   93.99559  8.42%     -    0s
     0     0   97.18697    0   16  102.63821   97.18697  5.31%     -    0s
 done with super cut 3
     0     0   97.32849    0   17  102.63821   97.32849  5.17%     -    0s
     0     0   97.37142    0   17  102.63821   97.37142  5.13%     -    0s
 done with super cut 4
     0     0   97.37142    0   17  102.63821   97.37142  5.13%     -    0s
     0     2   97.37142    0   17  102.63821   97.37142  5.13%     -    0s

Cutting planes:
  Gomory: 2
  RLT: 1
  Lazy constraints: 5

Explored 6 nodes (92 simplex iterations) in 0.11 seconds
Thread count was 12 (of 12 available processors)

Solution count 1: 102.638 

Optimal solution found (tolerance 1.00e-04)
Best objective 1.026382111177e+02, best bound 1.026382111177e+02, gap 0.0000%

User-callback calls 108, time in user-callback 0.08 sec
/projects/academic/josewalt/caigao/RRARP_BD/BendersDecomp/ret/model_outs/n_7_e_1_algo_4.out
 =====>>>>> Solution is written to file in <../ret/model_outs> !!!
===>> All Done!
